(set-logic ALL)
(declare-rel simple!!query ())
(declare-rel itp (Int Int Int))
(declare-var A Int)
(declare-var B Int)
(declare-var C Int)
(declare-var D Int)
(declare-var E Int)
(declare-var F Int)
(rule (=> (and (= A (* 2 D)) (= C 0) (= B 0)) (itp C B A)))
(rule (let ((a!1 (and (= C (+ (- 1) F)) (= B (+ (- 1) E)))))
(let ((a!2 (or (and (= C (+ 1 F)) (= B (+ 1 E))) a!1)))
  (=> (and (itp F E D) a!2 (= A (+ D C B))) (itp C B A)))))
(rule (=> (and (itp A B C) (= C 77)) simple!!query))
(query simple!!query)
